p tw 176 39601 2 
1 89 
1 92 
1 93 
1 95 
1 98 
1 100 
1 101 
1 103 
1 106 
1 107 
1 110 
1 111 
1 114 
1 116 
1 118 
1 119 
1 121 
1 123 
1 125 
1 128 
1 130 
1 132 
1 134 
1 136 
1 137 
1 140 
1 141 
1 143 
1 145 
1 148 
1 149 
1 152 
1 153 
1 156 
1 158 
1 160 
1 161 
1 163 
1 165 
1 168 
1 170 
1 171 
1 173 
1 175 
2 90 
2 91 
2 94 
2 96 
2 97 
2 99 
2 102 
2 104 
2 105 
2 108 
2 109 
2 112 
2 113 
2 115 
2 117 
2 120 
2 122 
2 124 
2 126 
2 127 
2 129 
2 131 
2 133 
2 135 
2 138 
2 139 
2 142 
2 144 
2 146 
2 147 
2 150 
2 151 
2 154 
2 155 
2 157 
2 159 
2 162 
2 164 
2 166 
2 167 
2 169 
2 172 
2 174 
2 176 
3 4 
3 90 
3 92 
3 94 
3 96 
3 98 
3 99 
3 101 
3 103 
3 106 
3 107 
3 109 
3 111 
3 113 
3 116 
3 117 
3 119 
3 122 
3 124 
3 125 
3 128 
3 130 
3 131 
3 134 
3 135 
3 137 
3 140 
3 142 
3 144 
3 146 
3 147 
3 150 
3 151 
3 154 
3 156 
3 157 
3 160 
3 161 
3 164 
3 165 
3 168 
3 169 
3 172 
3 173 
3 175 
4 89 
4 91 
4 93 
4 95 
4 97 
4 100 
4 102 
4 104 
4 105 
4 108 
4 110 
4 112 
4 114 
4 115 
4 118 
4 120 
4 121 
4 123 
4 126 
4 127 
4 129 
4 132 
4 133 
4 136 
4 138 
4 139 
4 141 
4 143 
4 145 
4 148 
4 149 
4 152 
4 153 
4 155 
4 158 
4 159 
4 162 
4 163 
4 166 
4 167 
4 170 
4 171 
4 174 
4 176 
5 6 
5 90 
5 92 
5 93 
5 95 
5 97 
5 99 
5 101 
5 103 
5 105 
5 108 
5 109 
5 112 
5 114 
5 116 
5 117 
5 119 
5 122 
5 123 
5 125 
5 127 
5 129 
5 132 
5 133 
5 135 
5 137 
5 140 
5 142 
5 143 
5 146 
5 147 
5 149 
5 151 
5 153 
5 155 
5 157 
5 159 
5 161 
5 163 
5 165 
5 167 
5 170 
5 171 
5 173 
5 176 
6 89 
6 91 
6 94 
6 96 
6 98 
6 100 
6 102 
6 104 
6 106 
6 107 
6 110 
6 111 
6 113 
6 115 
6 118 
6 120 
6 121 
6 124 
6 126 
6 128 
6 130 
6 131 
6 134 
6 136 
6 138 
6 139 
6 141 
6 144 
6 145 
6 148 
6 150 
6 152 
6 154 
6 156 
6 158 
6 160 
6 162 
6 164 
6 166 
6 168 
6 169 
6 172 
6 174 
6 175 
7 8 
7 89 
7 92 
7 94 
7 95 
7 98 
7 100 
7 102 
7 104 
7 106 
7 107 
7 110 
7 111 
7 114 
7 116 
7 117 
7 119 
7 122 
7 123 
7 126 
7 127 
7 129 
7 131 
7 134 
7 135 
7 138 
7 139 
7 142 
7 143 
7 146 
7 148 
7 150 
7 151 
7 153 
7 155 
7 158 
7 160 
7 161 
7 164 
7 165 
7 167 
7 169 
7 171 
7 174 
7 176 
8 90 
8 91 
8 93 
8 96 
8 97 
8 99 
8 101 
8 103 
8 105 
8 108 
8 109 
8 112 
8 113 
8 115 
8 118 
8 120 
8 121 
8 124 
8 125 
8 128 
8 130 
8 132 
8 133 
8 136 
8 137 
8 140 
8 141 
8 144 
8 145 
8 147 
8 149 
8 152 
8 154 
8 156 
8 157 
8 159 
8 162 
8 163 
8 166 
8 168 
8 170 
8 172 
8 173 
8 175 
9 10 
9 90 
9 92 
9 93 
9 96 
9 98 
9 99 
9 102 
9 103 
9 105 
9 107 
9 110 
9 111 
9 114 
9 116 
9 118 
9 120 
9 121 
9 124 
9 126 
9 128 
9 129 
9 131 
9 133 
9 135 
9 137 
9 140 
9 141 
9 143 
9 146 
9 148 
9 150 
9 151 
9 153 
9 155 
9 158 
9 159 
9 162 
9 163 
9 166 
9 168 
9 169 
9 172 
9 173 
9 176 
10 89 
10 91 
10 94 
10 95 
10 97 
10 100 
10 101 
10 104 
10 106 
10 108 
10 109 
10 112 
10 113 
10 115 
10 117 
10 119 
10 122 
10 123 
10 125 
10 127 
10 130 
10 132 
10 134 
10 136 
10 138 
10 139 
10 142 
10 144 
10 145 
10 147 
10 149 
10 152 
10 154 
10 156 
10 157 
10 160 
10 161 
10 164 
10 165 
10 167 
10 170 
10 171 
10 174 
10 175 
11 12 
11 89 
11 92 
11 94 
11 95 
11 97 
11 100 
11 102 
11 104 
11 106 
11 107 
11 109 
11 112 
11 113 
11 116 
11 118 
11 120 
11 121 
11 124 
11 126 
11 127 
11 129 
11 131 
11 133 
11 136 
11 137 
11 140 
11 142 
11 143 
11 146 
11 148 
11 149 
11 151 
11 154 
11 156 
11 157 
11 159 
11 161 
11 164 
11 166 
11 168 
11 170 
11 171 
11 173 
11 175 
12 90 
12 91 
12 93 
12 96 
12 98 
12 99 
12 101 
12 103 
12 105 
12 108 
12 110 
12 111 
12 114 
12 115 
12 117 
12 119 
12 122 
12 123 
12 125 
12 128 
12 130 
12 132 
12 134 
12 135 
12 138 
12 139 
12 141 
12 144 
12 145 
12 147 
12 150 
12 152 
12 153 
12 155 
12 158 
12 160 
12 162 
12 163 
12 165 
12 167 
12 169 
12 172 
12 174 
12 176 
13 14 
13 90 
13 91 
13 93 
13 96 
13 97 
13 100 
13 102 
13 103 
13 106 
13 107 
13 110 
13 111 
13 114 
13 115 
13 117 
13 119 
13 122 
13 124 
13 126 
13 128 
13 130 
13 131 
13 133 
13 136 
13 137 
13 139 
13 142 
13 144 
13 146 
13 147 
13 149 
13 151 
13 153 
13 156 
13 158 
13 159 
13 161 
13 163 
13 166 
13 167 
13 170 
13 171 
13 174 
13 175 
14 89 
14 92 
14 94 
14 95 
14 98 
14 99 
14 101 
14 104 
14 105 
14 108 
14 109 
14 112 
14 113 
14 116 
14 118 
14 120 
14 121 
14 123 
14 125 
14 127 
14 129 
14 132 
14 134 
14 135 
14 138 
14 140 
14 141 
14 143 
14 145 
14 148 
14 150 
14 152 
14 154 
14 155 
14 157 
14 160 
14 162 
14 164 
14 165 
14 168 
14 169 
14 172 
14 173 
14 176 
15 16 
15 89 
15 92 
15 94 
15 96 
15 98 
15 99 
15 102 
15 103 
15 106 
15 108 
15 109 
15 111 
15 114 
15 116 
15 118 
15 119 
15 121 
15 124 
15 125 
15 128 
15 129 
15 131 
15 133 
15 136 
15 138 
15 139 
15 142 
15 143 
15 145 
15 147 
15 150 
15 152 
15 154 
15 155 
15 157 
15 159 
15 162 
15 163 
15 165 
15 167 
15 170 
15 171 
15 174 
15 175 
16 90 
16 91 
16 93 
16 95 
16 97 
16 100 
16 101 
16 104 
16 105 
16 107 
16 110 
16 112 
16 113 
16 115 
16 117 
16 120 
16 122 
16 123 
16 126 
16 127 
16 130 
16 132 
16 134 
16 135 
16 137 
16 140 
16 141 
16 144 
16 146 
16 148 
16 149 
16 151 
16 153 
16 156 
16 158 
16 160 
16 161 
16 164 
16 166 
16 168 
16 169 
16 172 
16 173 
16 176 
17 18 
17 90 
17 92 
17 94 
17 96 
17 98 
17 99 
17 101 
17 104 
17 105 
17 107 
17 110 
17 111 
17 113 
17 116 
17 117 
17 119 
17 121 
17 124 
17 125 
17 127 
17 130 
17 132 
17 133 
17 136 
17 138 
17 139 
17 141 
17 143 
17 145 
17 148 
17 149 
17 151 
17 153 
17 156 
17 157 
17 159 
17 161 
17 164 
17 166 
17 167 
17 170 
17 172 
17 174 
17 176 
18 89 
18 91 
18 93 
18 95 
18 97 
18 100 
18 102 
18 103 
18 106 
18 108 
18 109 
18 112 
18 114 
18 115 
18 118 
18 120 
18 122 
18 123 
18 126 
18 128 
18 129 
18 131 
18 134 
18 135 
18 137 
18 140 
18 142 
18 144 
18 146 
18 147 
18 150 
18 152 
18 154 
18 155 
18 158 
18 160 
18 162 
18 163 
18 165 
18 168 
18 169 
18 171 
18 173 
18 175 
19 20 
19 90 
19 92 
19 94 
19 95 
19 97 
19 100 
19 101 
19 103 
19 105 
19 108 
19 110 
19 111 
19 113 
19 115 
19 118 
19 119 
19 121 
19 123 
19 125 
19 127 
19 129 
19 131 
19 134 
19 136 
19 137 
19 139 
19 142 
19 143 
19 146 
19 147 
19 150 
19 152 
19 154 
19 156 
19 158 
19 159 
19 161 
19 163 
19 166 
19 168 
19 169 
19 172 
19 174 
19 176 
20 89 
20 91 
20 93 
20 96 
20 98 
20 99 
20 102 
20 104 
20 106 
20 107 
20 109 
20 112 
20 114 
20 116 
20 117 
20 120 
20 122 
20 124 
20 126 
20 128 
20 130 
20 132 
20 133 
20 135 
20 138 
20 140 
20 141 
20 144 
20 145 
20 148 
20 149 
20 151 
20 153 
20 155 
20 157 
20 160 
20 162 
20 164 
20 165 
20 167 
20 170 
20 171 
20 173 
20 175 
21 22 
21 90 
21 91 
21 93 
21 95 
21 97 
21 99 
21 102 
21 104 
21 106 
21 107 
21 110 
21 111 
21 114 
21 116 
21 118 
21 119 
21 122 
21 123 
21 125 
21 127 
21 130 
21 131 
21 133 
21 136 
21 138 
21 140 
21 141 
21 144 
21 145 
21 147 
21 150 
21 152 
21 154 
21 155 
21 157 
21 159 
21 161 
21 164 
21 166 
21 168 
21 169 
21 171 
21 173 
21 176 
22 89 
22 92 
22 94 
22 96 
22 98 
22 100 
22 101 
22 103 
22 105 
22 108 
22 109 
22 112 
22 113 
22 115 
22 117 
22 120 
22 121 
22 124 
22 126 
22 128 
22 129 
22 132 
22 134 
22 135 
22 137 
22 139 
22 142 
22 143 
22 146 
22 148 
22 149 
22 151 
22 153 
22 156 
22 158 
22 160 
22 162 
22 163 
22 165 
22 167 
22 170 
22 172 
22 174 
22 175 
23 24 
23 89 
23 92 
23 93 
23 96 
23 98 
23 99 
23 102 
23 104 
23 105 
23 107 
23 110 
23 111 
23 113 
23 115 
23 118 
23 120 
23 122 
23 123 
23 126 
23 127 
23 130 
23 132 
23 133 
23 136 
23 137 
23 140 
23 142 
23 143 
23 146 
23 147 
23 149 
23 152 
23 154 
23 155 
23 157 
23 160 
23 161 
23 163 
23 165 
23 167 
23 169 
23 172 
23 174 
23 175 
24 90 
24 91 
24 94 
24 95 
24 97 
24 100 
24 101 
24 103 
24 106 
24 108 
24 109 
24 112 
24 114 
24 116 
24 117 
24 119 
24 121 
24 124 
24 125 
24 128 
24 129 
24 131 
24 134 
24 135 
24 138 
24 139 
24 141 
24 144 
24 145 
24 148 
24 150 
24 151 
24 153 
24 156 
24 158 
24 159 
24 162 
24 164 
24 166 
24 168 
24 170 
24 171 
24 173 
24 176 
25 26 
25 89 
25 92 
25 94 
25 96 
25 97 
25 99 
25 101 
25 104 
25 106 
25 108 
25 109 
25 111 
25 114 
25 115 
25 117 
25 119 
25 121 
25 123 
25 126 
25 127 
25 130 
25 132 
25 134 
25 136 
25 137 
25 140 
25 141 
25 144 
25 146 
25 148 
25 150 
25 151 
25 153 
25 155 
25 157 
25 159 
25 162 
25 163 
25 166 
25 168 
25 169 
25 171 
25 174 
25 175 
26 90 
26 91 
26 93 
26 95 
26 98 
26 100 
26 102 
26 103 
26 105 
26 107 
26 110 
26 112 
26 113 
26 116 
26 118 
26 120 
26 122 
26 124 
26 125 
26 128 
26 129 
26 131 
26 133 
26 135 
26 138 
26 139 
26 142 
26 143 
26 145 
26 147 
26 149 
26 152 
26 154 
26 156 
26 158 
26 160 
26 161 
26 164 
26 165 
26 167 
26 170 
26 172 
26 173 
26 176 
27 28 
27 89 
27 91 
27 93 
27 95 
27 98 
27 100 
27 102 
27 103 
27 106 
27 108 
27 109 
27 112 
27 113 
27 116 
27 117 
27 119 
27 122 
27 124 
27 125 
27 127 
27 130 
27 131 
27 133 
27 136 
27 137 
27 140 
27 141 
27 143 
27 146 
27 148 
27 150 
27 152 
27 153 
27 156 
27 157 
27 160 
27 162 
27 163 
27 166 
27 167 
27 169 
27 172 
27 174 
27 176 
28 90 
28 92 
28 94 
28 96 
28 97 
28 99 
28 101 
28 104 
28 105 
28 107 
28 110 
28 111 
28 114 
28 115 
28 118 
28 120 
28 121 
28 123 
28 126 
28 128 
28 129 
28 132 
28 134 
28 135 
28 138 
28 139 
28 142 
28 144 
28 145 
28 147 
28 149 
28 151 
28 154 
28 155 
28 158 
28 159 
28 161 
28 164 
28 165 
28 168 
28 170 
28 171 
28 173 
28 175 
29 30 
29 89 
29 92 
29 93 
29 96 
29 97 
29 99 
29 101 
29 104 
29 105 
29 107 
29 109 
29 111 
29 114 
29 116 
29 117 
29 120 
29 122 
29 124 
29 125 
29 127 
29 129 
29 131 
29 134 
29 136 
29 137 
29 139 
29 142 
29 144 
29 145 
29 148 
29 149 
29 152 
29 154 
29 156 
29 158 
29 160 
29 162 
29 163 
29 166 
29 167 
29 169 
29 171 
29 173 
29 176 
30 90 
30 91 
30 94 
30 95 
30 98 
30 100 
30 102 
30 103 
30 106 
30 108 
30 110 
30 112 
30 113 
30 115 
30 118 
30 119 
30 121 
30 123 
30 126 
30 128 
30 130 
30 132 
30 133 
30 135 
30 138 
30 140 
30 141 
30 143 
30 146 
30 147 
30 150 
30 151 
30 153 
30 155 
30 157 
30 159 
30 161 
30 164 
30 165 
30 168 
30 170 
30 172 
30 174 
30 175 
31 32 
31 90 
31 91 
31 94 
31 95 
31 97 
31 99 
31 101 
31 104 
31 105 
31 107 
31 110 
31 112 
31 114 
31 116 
31 117 
31 119 
31 121 
31 124 
31 126 
31 128 
31 129 
31 132 
31 133 
31 136 
31 137 
31 140 
31 141 
31 143 
31 146 
31 147 
31 150 
31 152 
31 154 
31 156 
31 158 
31 160 
31 162 
31 164 
31 165 
31 167 
31 169 
31 171 
31 174 
31 175 
32 89 
32 92 
32 93 
32 96 
32 98 
32 100 
32 102 
32 103 
32 106 
32 108 
32 109 
32 111 
32 113 
32 115 
32 118 
32 120 
32 122 
32 123 
32 125 
32 127 
32 130 
32 131 
32 134 
32 135 
32 138 
32 139 
32 142 
32 144 
32 145 
32 148 
32 149 
32 151 
32 153 
32 155 
32 157 
32 159 
32 161 
32 163 
32 166 
32 168 
32 170 
32 172 
32 173 
32 176 
33 34 
33 90 
33 91 
33 94 
33 95 
33 98 
33 99 
33 102 
33 104 
33 105 
33 108 
33 109 
33 111 
33 114 
33 116 
33 118 
33 120 
33 121 
33 124 
33 126 
33 127 
33 130 
33 131 
33 134 
33 135 
33 137 
33 139 
33 141 
33 144 
33 146 
33 147 
33 149 
33 152 
33 153 
33 156 
33 157 
33 160 
33 161 
33 163 
33 165 
33 168 
33 170 
33 171 
33 174 
33 176 
34 89 
34 92 
34 93 
34 96 
34 97 
34 100 
34 101 
34 103 
34 106 
34 107 
34 110 
34 112 
34 113 
34 115 
34 117 
34 119 
34 122 
34 123 
34 125 
34 128 
34 129 
34 132 
34 133 
34 136 
34 138 
34 140 
34 142 
34 143 
34 145 
34 148 
34 150 
34 151 
34 154 
34 155 
34 158 
34 159 
34 162 
34 164 
34 166 
34 167 
34 169 
34 172 
34 173 
34 175 
35 36 
35 90 
35 91 
35 93 
35 95 
35 98 
35 99 
35 102 
35 103 
35 106 
35 107 
35 110 
35 112 
35 114 
35 116 
35 117 
35 120 
35 121 
35 123 
35 125 
35 127 
35 129 
35 132 
35 134 
35 136 
35 138 
35 139 
35 142 
35 144 
35 146 
35 148 
35 149 
35 151 
35 154 
35 156 
35 157 
35 159 
35 162 
35 163 
35 165 
35 168 
35 169 
35 172 
35 174 
35 175 
36 89 
36 92 
36 94 
36 96 
36 97 
36 100 
36 101 
36 104 
36 105 
36 108 
36 109 
36 111 
36 113 
36 115 
36 118 
36 119 
36 122 
36 124 
36 126 
36 128 
36 130 
36 131 
36 133 
36 135 
36 137 
36 140 
36 141 
36 143 
36 145 
36 147 
36 150 
36 152 
36 153 
36 155 
36 158 
36 160 
36 161 
36 164 
36 166 
36 167 
36 170 
36 171 
36 173 
36 176 
37 38 
37 89 
37 91 
37 94 
37 96 
37 98 
37 99 
37 101 
37 104 
37 106 
37 108 
37 110 
37 112 
37 113 
37 116 
37 117 
37 119 
37 122 
37 123 
37 126 
37 128 
37 129 
37 131 
37 133 
37 136 
37 137 
37 139 
37 141 
37 144 
37 146 
37 148 
37 149 
37 152 
37 154 
37 155 
37 158 
37 159 
37 161 
37 163 
37 165 
37 168 
37 170 
37 172 
37 173 
37 176 
38 90 
38 92 
38 93 
38 95 
38 97 
38 100 
38 102 
38 103 
38 105 
38 107 
38 109 
38 111 
38 114 
38 115 
38 118 
38 120 
38 121 
38 124 
38 125 
38 127 
38 130 
38 132 
38 134 
38 135 
38 138 
38 140 
38 142 
38 143 
38 145 
38 147 
38 150 
38 151 
38 153 
38 156 
38 157 
38 160 
38 162 
38 164 
38 166 
38 167 
38 169 
38 171 
38 174 
38 175 
39 40 
39 89 
39 91 
39 94 
39 96 
39 98 
39 100 
39 101 
39 103 
39 105 
39 107 
39 109 
39 112 
39 114 
39 116 
39 118 
39 120 
39 122 
39 123 
39 126 
39 128 
39 130 
39 132 
39 134 
39 136 
39 138 
39 139 
39 141 
39 143 
39 146 
39 147 
39 150 
39 151 
39 154 
39 156 
39 157 
39 159 
39 161 
39 163 
39 166 
39 167 
39 169 
39 171 
39 173 
39 176 
40 90 
40 92 
40 93 
40 95 
40 97 
40 99 
40 102 
40 104 
40 106 
40 108 
40 110 
40 111 
40 113 
40 115 
40 117 
40 119 
40 121 
40 124 
40 125 
40 127 
40 129 
40 131 
40 133 
40 135 
40 137 
40 140 
40 142 
40 144 
40 145 
40 148 
40 149 
40 152 
40 153 
40 155 
40 158 
40 160 
40 162 
40 164 
40 165 
40 168 
40 170 
40 172 
40 174 
40 175 
41 42 
41 89 
41 92 
41 94 
41 96 
41 97 
41 100 
41 102 
41 103 
41 105 
41 108 
41 110 
41 112 
41 114 
41 116 
41 117 
41 120 
41 121 
41 124 
41 125 
41 127 
41 130 
41 131 
41 134 
41 136 
41 138 
41 140 
41 141 
41 144 
41 146 
41 147 
41 149 
41 152 
41 153 
41 155 
41 158 
41 159 
41 161 
41 164 
41 165 
41 167 
41 169 
41 172 
41 173 
41 175 
42 90 
42 91 
42 93 
42 95 
42 98 
42 99 
42 101 
42 104 
42 106 
42 107 
42 109 
42 111 
42 113 
42 115 
42 118 
42 119 
42 122 
42 123 
42 126 
42 128 
42 129 
42 132 
42 133 
42 135 
42 137 
42 139 
42 142 
42 143 
42 145 
42 148 
42 150 
42 151 
42 154 
42 156 
42 157 
42 160 
42 162 
42 163 
42 166 
42 168 
42 170 
42 171 
42 174 
42 176 
43 44 
43 90 
43 92 
43 94 
43 96 
43 97 
43 100 
43 102 
43 104 
43 106 
43 108 
43 110 
43 111 
43 113 
43 116 
43 117 
43 120 
43 122 
43 123 
43 125 
43 128 
43 129 
43 132 
43 133 
43 135 
43 138 
43 139 
43 141 
43 143 
43 146 
43 147 
43 149 
43 152 
43 153 
43 156 
43 157 
43 160 
43 162 
43 163 
43 166 
43 168 
43 169 
43 171 
43 173 
43 175 
44 89 
44 91 
44 93 
44 95 
44 98 
44 99 
44 101 
44 103 
44 105 
44 107 
44 109 
44 112 
44 114 
44 115 
44 118 
44 119 
44 121 
44 124 
44 126 
44 127 
44 130 
44 131 
44 134 
44 136 
44 137 
44 140 
44 142 
44 144 
44 145 
44 148 
44 150 
44 151 
44 154 
44 155 
44 158 
44 159 
44 161 
44 164 
44 165 
44 167 
44 170 
44 172 
44 174 
44 176 
45 46 
45 90 
45 92 
45 94 
45 96 
45 97 
45 99 
45 102 
45 103 
45 106 
45 108 
45 110 
45 112 
45 114 
45 116 
45 118 
45 120 
45 122 
45 123 
45 126 
45 128 
45 129 
45 132 
45 134 
45 136 
45 137 
45 140 
45 142 
45 144 
45 145 
45 148 
45 150 
45 152 
45 153 
45 156 
45 157 
45 160 
45 161 
45 164 
45 166 
45 167 
45 170 
45 172 
45 174 
45 176 
46 89 
46 91 
46 93 
46 95 
46 98 
46 100 
46 101 
46 104 
46 105 
46 107 
46 109 
46 111 
46 113 
46 115 
46 117 
46 119 
46 121 
46 124 
46 125 
46 127 
46 130 
46 131 
46 133 
46 135 
46 138 
46 139 
46 141 
46 143 
46 146 
46 147 
46 149 
46 151 
46 154 
46 155 
46 158 
46 159 
46 162 
46 163 
46 165 
46 168 
46 169 
46 171 
46 173 
46 175 
47 48 
47 90 
47 92 
47 93 
47 95 
47 98 
47 99 
47 101 
47 103 
47 106 
47 108 
47 109 
47 111 
47 113 
47 115 
47 118 
47 120 
47 122 
47 124 
47 126 
47 127 
47 129 
47 132 
47 133 
47 136 
47 138 
47 139 
47 141 
47 144 
47 146 
47 148 
47 150 
47 152 
47 153 
47 156 
47 158 
47 159 
47 161 
47 164 
47 165 
47 167 
47 169 
47 171 
47 173 
47 175 
48 89 
48 91 
48 94 
48 96 
48 97 
48 100 
48 102 
48 104 
48 105 
48 107 
48 110 
48 112 
48 114 
48 116 
48 117 
48 119 
48 121 
48 123 
48 125 
48 128 
48 130 
48 131 
48 134 
48 135 
48 137 
48 140 
48 142 
48 143 
48 145 
48 147 
48 149 
48 151 
48 154 
48 155 
48 157 
48 160 
48 162 
48 163 
48 166 
48 168 
48 170 
48 172 
48 174 
48 176 
49 50 
49 89 
49 91 
49 94 
49 96 
49 97 
49 99 
49 101 
49 103 
49 106 
49 107 
49 109 
49 111 
49 114 
49 115 
49 118 
49 120 
49 122 
49 123 
49 125 
49 127 
49 129 
49 131 
49 133 
49 136 
49 138 
49 140 
49 141 
49 143 
49 146 
49 147 
49 149 
49 151 
49 153 
49 156 
49 158 
49 160 
49 162 
49 164 
49 165 
49 168 
49 170 
49 172 
49 174 
49 176 
50 90 
50 92 
50 93 
50 95 
50 98 
50 100 
50 102 
50 104 
50 105 
50 108 
50 110 
50 112 
50 113 
50 116 
50 117 
50 119 
50 121 
50 124 
50 126 
50 128 
50 130 
50 132 
50 134 
50 135 
50 137 
50 139 
50 142 
50 144 
50 145 
50 148 
50 150 
50 152 
50 154 
50 155 
50 157 
50 159 
50 161 
50 163 
50 166 
50 167 
50 169 
50 171 
50 173 
50 175 
51 52 
51 89 
51 91 
51 93 
51 96 
51 97 
51 99 
51 102 
51 103 
51 105 
51 108 
51 109 
51 111 
51 114 
51 116 
51 117 
51 119 
51 121 
51 123 
51 126 
51 127 
51 130 
51 132 
51 133 
51 135 
51 138 
51 139 
51 142 
51 143 
51 146 
51 148 
51 150 
51 152 
51 154 
51 156 
51 158 
51 160 
51 161 
51 164 
51 166 
51 168 
51 170 
51 172 
51 173 
51 175 
52 90 
52 92 
52 94 
52 95 
52 98 
52 100 
52 101 
52 104 
52 106 
52 107 
52 110 
52 112 
52 113 
52 115 
52 118 
52 120 
52 122 
52 124 
52 125 
52 128 
52 129 
52 131 
52 134 
52 136 
52 137 
52 140 
52 141 
52 144 
52 145 
52 147 
52 149 
52 151 
52 153 
52 155 
52 157 
52 159 
52 162 
52 163 
52 165 
52 167 
52 169 
52 171 
52 174 
52 176 
53 54 
53 89 
53 91 
53 94 
53 95 
53 97 
53 99 
53 102 
53 103 
53 105 
53 107 
53 110 
53 111 
53 113 
53 115 
53 117 
53 120 
53 122 
53 124 
53 125 
53 128 
53 130 
53 132 
53 134 
53 136 
53 137 
53 139 
53 142 
53 143 
53 146 
53 148 
53 150 
53 152 
53 153 
53 155 
53 157 
53 159 
53 162 
53 164 
53 165 
53 168 
53 170 
53 171 
53 173 
53 176 
54 90 
54 92 
54 93 
54 96 
54 98 
54 100 
54 101 
54 104 
54 106 
54 108 
54 109 
54 112 
54 114 
54 116 
54 118 
54 119 
54 121 
54 123 
54 126 
54 127 
54 129 
54 131 
54 133 
54 135 
54 138 
54 140 
54 141 
54 144 
54 145 
54 147 
54 149 
54 151 
54 154 
54 156 
54 158 
54 160 
54 161 
54 163 
54 166 
54 167 
54 169 
54 172 
54 174 
54 175 
55 56 
55 90 
55 91 
55 94 
55 96 
55 98 
55 100 
55 102 
55 103 
55 105 
55 107 
55 109 
55 111 
55 113 
55 116 
55 118 
55 119 
55 122 
55 123 
55 125 
55 127 
55 129 
55 132 
55 134 
55 135 
55 137 
55 140 
55 141 
55 144 
55 146 
55 148 
55 149 
55 152 
55 154 
55 155 
55 158 
55 159 
55 162 
55 164 
55 166 
55 167 
55 170 
55 171 
55 174 
55 175 
56 89 
56 92 
56 93 
56 95 
56 97 
56 99 
56 101 
56 104 
56 106 
56 108 
56 110 
56 112 
56 114 
56 115 
56 117 
56 120 
56 121 
56 124 
56 126 
56 128 
56 130 
56 131 
56 133 
56 136 
56 138 
56 139 
56 142 
56 143 
56 145 
56 147 
56 150 
56 151 
56 153 
56 156 
56 157 
56 160 
56 161 
56 163 
56 165 
56 168 
56 169 
56 172 
56 173 
56 176 
57 58 
57 90 
57 91 
57 94 
57 95 
57 98 
57 100 
57 101 
57 104 
57 105 
57 107 
57 109 
57 111 
57 114 
57 115 
57 117 
57 120 
57 121 
57 123 
57 125 
57 128 
57 129 
57 131 
57 133 
57 136 
57 138 
57 140 
57 142 
57 144 
57 146 
57 148 
57 150 
57 152 
57 153 
57 155 
57 157 
57 160 
57 161 
57 163 
57 166 
57 167 
57 170 
57 172 
57 173 
57 175 
58 89 
58 92 
58 93 
58 96 
58 97 
58 99 
58 102 
58 103 
58 106 
58 108 
58 110 
58 112 
58 113 
58 116 
58 118 
58 119 
58 122 
58 124 
58 126 
58 127 
58 130 
58 132 
58 134 
58 135 
58 137 
58 139 
58 141 
58 143 
58 145 
58 147 
58 149 
58 151 
58 154 
58 156 
58 158 
58 159 
58 162 
58 164 
58 165 
58 168 
58 169 
58 171 
58 174 
58 176 
59 60 
59 89 
59 91 
59 94 
59 95 
59 98 
59 100 
59 101 
59 103 
59 105 
59 108 
59 110 
59 111 
59 114 
59 116 
59 118 
59 119 
59 122 
59 124 
59 126 
59 127 
59 129 
59 132 
59 133 
59 136 
59 137 
59 139 
59 142 
59 144 
59 145 
59 147 
59 149 
59 151 
59 153 
59 155 
59 157 
59 160 
59 162 
59 164 
59 166 
59 168 
59 169 
59 172 
59 173 
59 175 
60 90 
60 92 
60 93 
60 96 
60 97 
60 99 
60 102 
60 104 
60 106 
60 107 
60 109 
60 112 
60 113 
60 115 
60 117 
60 120 
60 121 
60 123 
60 125 
60 128 
60 130 
60 131 
60 134 
60 135 
60 138 
60 140 
60 141 
60 143 
60 146 
60 148 
60 150 
60 152 
60 154 
60 156 
60 158 
60 159 
60 161 
60 163 
60 165 
60 167 
60 170 
60 171 
60 174 
60 176 
61 62 
61 89 
61 91 
61 93 
61 96 
61 98 
61 100 
61 102 
61 104 
61 105 
61 108 
61 109 
61 111 
61 113 
61 116 
61 117 
61 120 
61 121 
61 123 
61 125 
61 128 
61 129 
61 132 
61 133 
61 136 
61 137 
61 140 
61 142 
61 144 
61 145 
61 147 
61 150 
61 151 
61 153 
61 156 
61 158 
61 159 
61 161 
61 164 
61 165 
61 168 
61 169 
61 171 
61 174 
61 176 
62 90 
62 92 
62 94 
62 95 
62 97 
62 99 
62 101 
62 103 
62 106 
62 107 
62 110 
62 112 
62 114 
62 115 
62 118 
62 119 
62 122 
62 124 
62 126 
62 127 
62 130 
62 131 
62 134 
62 135 
62 138 
62 139 
62 141 
62 143 
62 146 
62 148 
62 149 
62 152 
62 154 
62 155 
62 157 
62 160 
62 162 
62 163 
62 166 
62 167 
62 170 
62 172 
62 173 
62 175 
63 64 
63 89 
63 91 
63 93 
63 96 
63 97 
63 100 
63 101 
63 104 
63 106 
63 107 
63 110 
63 111 
63 113 
63 116 
63 118 
63 119 
63 121 
63 124 
63 126 
63 127 
63 129 
63 132 
63 134 
63 135 
63 138 
63 140 
63 142 
63 144 
63 146 
63 147 
63 150 
63 152 
63 153 
63 156 
63 157 
63 159 
63 162 
63 163 
63 165 
63 167 
63 170 
63 172 
63 173 
63 176 
64 90 
64 92 
64 94 
64 95 
64 98 
64 99 
64 102 
64 103 
64 105 
64 108 
64 109 
64 112 
64 114 
64 115 
64 117 
64 120 
64 122 
64 123 
64 125 
64 128 
64 130 
64 131 
64 133 
64 136 
64 137 
64 139 
64 141 
64 143 
64 145 
64 148 
64 149 
64 151 
64 154 
64 155 
64 158 
64 160 
64 161 
64 164 
64 166 
64 168 
64 169 
64 171 
64 174 
64 175 
65 66 
65 90 
65 92 
65 94 
65 95 
65 97 
65 100 
65 102 
65 103 
65 106 
65 107 
65 109 
65 111 
65 113 
65 116 
65 117 
65 120 
65 121 
65 123 
65 126 
65 127 
65 130 
65 132 
65 133 
65 136 
65 137 
65 139 
65 141 
65 144 
65 145 
65 147 
65 150 
65 151 
65 154 
65 155 
65 158 
65 160 
65 162 
65 163 
65 165 
65 167 
65 170 
65 172 
65 173 
65 176 
66 89 
66 91 
66 93 
66 96 
66 98 
66 99 
66 101 
66 104 
66 105 
66 108 
66 110 
66 112 
66 114 
66 115 
66 118 
66 119 
66 122 
66 124 
66 125 
66 128 
66 129 
66 131 
66 134 
66 135 
66 138 
66 140 
66 142 
66 143 
66 146 
66 148 
66 149 
66 152 
66 153 
66 156 
66 157 
66 159 
66 161 
66 164 
66 166 
66 168 
66 169 
66 171 
66 174 
66 175 
67 68 
67 89 
67 92 
67 93 
67 95 
67 98 
67 99 
67 102 
67 103 
67 105 
67 108 
67 110 
67 111 
67 113 
67 115 
67 117 
67 119 
67 121 
67 123 
67 126 
67 128 
67 129 
67 131 
67 134 
67 136 
67 138 
67 140 
67 141 
67 144 
67 146 
67 147 
67 149 
67 151 
67 154 
67 156 
67 157 
67 160 
67 162 
67 164 
67 166 
67 167 
67 170 
67 171 
67 173 
67 176 
68 90 
68 91 
68 94 
68 96 
68 97 
68 100 
68 101 
68 104 
68 106 
68 107 
68 109 
68 112 
68 114 
68 116 
68 118 
68 120 
68 122 
68 124 
68 125 
68 127 
68 130 
68 132 
68 133 
68 135 
68 137 
68 139 
68 142 
68 143 
68 145 
68 148 
68 150 
68 152 
68 153 
68 155 
68 158 
68 159 
68 161 
68 163 
68 165 
68 168 
68 169 
68 172 
68 174 
68 175 
69 70 
69 89 
69 92 
69 93 
69 95 
69 97 
69 99 
69 102 
69 104 
69 105 
69 107 
69 109 
69 112 
69 113 
69 116 
69 118 
69 119 
69 122 
69 124 
69 125 
69 128 
69 129 
69 132 
69 134 
69 136 
69 138 
69 139 
69 141 
69 144 
69 146 
69 147 
69 150 
69 151 
69 153 
69 155 
69 158 
69 160 
69 161 
69 163 
69 166 
69 168 
69 170 
69 172 
69 174 
69 175 
70 90 
70 91 
70 94 
70 96 
70 98 
70 100 
70 101 
70 103 
70 106 
70 108 
70 110 
70 111 
70 114 
70 115 
70 117 
70 120 
70 121 
70 123 
70 126 
70 127 
70 130 
70 131 
70 133 
70 135 
70 137 
70 140 
70 142 
70 143 
70 145 
70 148 
70 149 
70 152 
70 154 
70 156 
70 157 
70 159 
70 162 
70 164 
70 165 
70 167 
70 169 
70 171 
70 173 
70 176 
71 72 
71 90 
71 92 
71 94 
71 96 
71 98 
71 100 
71 102 
71 104 
71 105 
71 108 
71 110 
71 112 
71 114 
71 115 
71 118 
71 119 
71 122 
71 124 
71 125 
71 127 
71 130 
71 132 
71 133 
71 136 
71 138 
71 140 
71 142 
71 144 
71 146 
71 148 
71 150 
71 151 
71 154 
71 156 
71 158 
71 160 
71 162 
71 163 
71 165 
71 168 
71 170 
71 171 
71 173 
71 176 
72 89 
72 91 
72 93 
72 95 
72 97 
72 99 
72 101 
72 103 
72 106 
72 107 
72 109 
72 111 
72 113 
72 116 
72 117 
72 120 
72 121 
72 123 
72 126 
72 128 
72 129 
72 131 
72 134 
72 135 
72 137 
72 139 
72 141 
72 143 
72 145 
72 147 
72 149 
72 152 
72 153 
72 155 
72 157 
72 159 
72 161 
72 164 
72 166 
72 167 
72 169 
72 172 
72 174 
72 175 
73 74 
73 90 
73 92 
73 93 
73 95 
73 98 
73 100 
73 101 
73 104 
73 106 
73 108 
73 109 
73 111 
73 114 
73 116 
73 117 
73 120 
73 122 
73 124 
73 126 
73 128 
73 130 
73 132 
73 134 
73 136 
73 138 
73 140 
73 142 
73 143 
73 146 
73 147 
73 149 
73 152 
73 154 
73 155 
73 158 
73 159 
73 162 
73 164 
73 166 
73 168 
73 170 
73 172 
73 174 
73 176 
74 89 
74 91 
74 94 
74 96 
74 97 
74 99 
74 102 
74 103 
74 105 
74 107 
74 110 
74 112 
74 113 
74 115 
74 118 
74 119 
74 121 
74 123 
74 125 
74 127 
74 129 
74 131 
74 133 
74 135 
74 137 
74 139 
74 141 
74 144 
74 145 
74 148 
74 150 
74 151 
74 153 
74 156 
74 157 
74 160 
74 161 
74 163 
74 165 
74 167 
74 169 
74 171 
74 173 
74 175 
75 76 
75 90 
75 92 
75 93 
75 96 
75 97 
75 100 
75 101 
75 103 
75 105 
75 107 
75 109 
75 112 
75 113 
75 116 
75 118 
75 119 
75 121 
75 123 
75 126 
75 128 
75 130 
75 131 
75 133 
75 136 
75 138 
75 139 
75 142 
75 144 
75 146 
75 148 
75 149 
75 152 
75 153 
75 155 
75 157 
75 160 
75 162 
75 164 
75 165 
75 168 
75 169 
75 171 
75 174 
75 176 
76 89 
76 91 
76 94 
76 95 
76 98 
76 99 
76 102 
76 104 
76 106 
76 108 
76 110 
76 111 
76 114 
76 115 
76 117 
76 120 
76 122 
76 124 
76 125 
76 127 
76 129 
76 132 
76 134 
76 135 
76 137 
76 140 
76 141 
76 143 
76 145 
76 147 
76 150 
76 151 
76 154 
76 156 
76 158 
76 159 
76 161 
76 163 
76 166 
76 167 
76 170 
76 172 
76 173 
76 175 
77 78 
77 90 
77 91 
77 93 
77 96 
77 98 
77 99 
77 101 
77 104 
77 106 
77 108 
77 110 
77 112 
77 113 
77 116 
77 118 
77 120 
77 121 
77 123 
77 125 
77 127 
77 130 
77 131 
77 134 
77 136 
77 137 
77 139 
77 142 
77 143 
77 146 
77 147 
77 150 
77 151 
77 153 
77 155 
77 158 
77 160 
77 162 
77 164 
77 166 
77 167 
77 170 
77 171 
77 173 
77 175 
78 89 
78 92 
78 94 
78 95 
78 97 
78 100 
78 102 
78 103 
78 105 
78 107 
78 109 
78 111 
78 114 
78 115 
78 117 
78 119 
78 122 
78 124 
78 126 
78 128 
78 129 
78 132 
78 133 
78 135 
78 138 
78 140 
78 141 
78 144 
78 145 
78 148 
78 149 
78 152 
78 154 
78 156 
78 157 
78 159 
78 161 
78 163 
78 165 
78 168 
78 169 
78 172 
78 174 
78 176 
79 80 
79 90 
79 91 
79 93 
79 96 
79 97 
79 100 
79 102 
79 104 
79 106 
79 108 
79 109 
79 111 
79 114 
79 115 
79 118 
79 119 
79 121 
79 124 
79 125 
79 128 
79 129 
79 132 
79 134 
79 136 
79 137 
79 139 
79 141 
79 143 
79 146 
79 148 
79 149 
79 151 
79 154 
79 155 
79 157 
79 160 
79 161 
79 164 
79 165 
79 167 
79 169 
79 172 
79 173 
79 176 
80 89 
80 92 
80 94 
80 95 
80 98 
80 99 
80 101 
80 103 
80 105 
80 107 
80 110 
80 112 
80 113 
80 116 
80 117 
80 120 
80 122 
80 123 
80 126 
80 127 
80 130 
80 131 
80 133 
80 135 
80 138 
80 140 
80 142 
80 144 
80 145 
80 147 
80 150 
80 152 
80 153 
80 156 
80 158 
80 159 
80 162 
80 163 
80 166 
80 168 
80 170 
80 171 
80 174 
80 175 
81 82 
81 89 
81 92 
81 93 
81 95 
81 97 
81 100 
81 101 
81 104 
81 105 
81 108 
81 110 
81 111 
81 114 
81 116 
81 118 
81 120 
81 122 
81 123 
81 125 
81 128 
81 130 
81 131 
81 133 
81 135 
81 137 
81 139 
81 141 
81 144 
81 146 
81 148 
81 150 
81 151 
81 154 
81 156 
81 157 
81 159 
81 162 
81 164 
81 165 
81 167 
81 170 
81 172 
81 174 
81 175 
82 90 
82 91 
82 94 
82 96 
82 98 
82 99 
82 102 
82 103 
82 106 
82 107 
82 109 
82 112 
82 113 
82 115 
82 117 
82 119 
82 121 
82 124 
82 126 
82 127 
82 129 
82 132 
82 134 
82 136 
82 138 
82 140 
82 142 
82 143 
82 145 
82 147 
82 149 
82 152 
82 153 
82 155 
82 158 
82 160 
82 161 
82 163 
82 166 
82 168 
82 169 
82 171 
82 173 
82 176 
83 84 
83 90 
83 91 
83 93 
83 96 
83 97 
83 100 
83 101 
83 103 
83 105 
83 108 
83 110 
83 111 
83 113 
83 116 
83 117 
83 120 
83 122 
83 124 
83 126 
83 127 
83 129 
83 131 
83 134 
83 136 
83 138 
83 140 
83 141 
83 143 
83 145 
83 148 
83 150 
83 151 
83 154 
83 155 
83 157 
83 160 
83 161 
83 163 
83 165 
83 168 
83 170 
83 171 
83 174 
83 175 
84 89 
84 92 
84 94 
84 95 
84 98 
84 99 
84 102 
84 104 
84 106 
84 107 
84 109 
84 112 
84 114 
84 115 
84 118 
84 119 
84 121 
84 123 
84 125 
84 128 
84 130 
84 132 
84 133 
84 135 
84 137 
84 139 
84 142 
84 144 
84 146 
84 147 
84 149 
84 152 
84 153 
84 156 
84 158 
84 159 
84 162 
84 164 
84 166 
84 167 
84 169 
84 172 
84 173 
84 176 
85 86 
85 90 
85 91 
85 94 
85 95 
85 97 
85 99 
85 102 
85 104 
85 105 
85 108 
85 109 
85 111 
85 113 
85 116 
85 118 
85 119 
85 122 
85 123 
85 126 
85 128 
85 130 
85 131 
85 134 
85 136 
85 138 
85 140 
85 142 
85 143 
85 145 
85 148 
85 149 
85 151 
85 153 
85 156 
85 158 
85 159 
85 162 
85 163 
85 165 
85 167 
85 169 
85 172 
85 173 
85 175 
86 89 
86 92 
86 93 
86 96 
86 98 
86 100 
86 101 
86 103 
86 106 
86 107 
86 110 
86 112 
86 114 
86 115 
86 117 
86 120 
86 121 
86 124 
86 125 
86 127 
86 129 
86 132 
86 133 
86 135 
86 137 
86 139 
86 141 
86 144 
86 146 
86 147 
86 150 
86 152 
86 154 
86 155 
86 157 
86 160 
86 161 
86 164 
86 166 
86 168 
86 170 
86 171 
86 174 
86 176 
87 88 
87 89 
87 91 
87 94 
87 95 
87 97 
87 99 
87 101 
87 103 
87 106 
87 108 
87 110 
87 111 
87 113 
87 116 
87 118 
87 120 
87 121 
87 124 
87 125 
87 128 
87 130 
87 132 
87 133 
87 135 
87 138 
87 140 
87 142 
87 144 
87 146 
87 148 
87 149 
87 151 
87 154 
87 155 
87 158 
87 160 
87 161 
87 163 
87 166 
87 167 
87 169 
87 171 
87 174 
87 176 
88 90 
88 92 
88 93 
88 96 
88 98 
88 100 
88 102 
88 104 
88 105 
88 107 
88 109 
88 112 
88 114 
88 115 
88 117 
88 119 
88 122 
88 123 
88 126 
88 127 
88 129 
88 131 
88 134 
88 136 
88 137 
88 139 
88 141 
88 143 
88 145 
88 147 
88 150 
88 152 
88 153 
88 156 
88 157 
88 159 
88 162 
88 164 
88 165 
88 168 
88 170 
88 172 
88 173 
88 175 
89 90 
91 92 
93 94 
95 96 
97 98 
99 100 
101 102 
103 104 
105 106 
107 108 
109 110 
111 112 
113 114 
115 116 
117 118 
119 120 
121 122 
123 124 
125 126 
127 128 
129 130 
131 132 
133 134 
135 136 
137 138 
139 140 
141 142 
143 144 
145 146 
147 148 
149 150 
151 152 
153 154 
155 156 
157 158 
159 160 
161 162 
163 164 
165 166 
167 168 
169 170 
171 172 
173 174 
175 176 
